p edge 660 1320
e 1 545
e 1 546
e 1 461
e 1 462
e 1 601
e 1 602
e 1 605
e 1 606
e 2 547
e 2 548
e 2 463
e 2 464
e 2 603
e 2 604
e 2 607
e 2 608
e 3 337
e 3 338
e 3 653
e 3 654
e 4 339
e 4 340
e 4 655
e 4 656
e 5 321
e 5 322
e 5 418
e 5 285
e 5 589
e 5 590
e 5 414
e 5 465
e 5 466
e 5 574
e 5 417
e 5 594
e 5 593
e 5 413
e 5 286
e 5 573
e 6 323
e 6 324
e 6 575
e 6 596
e 6 419
e 6 468
e 6 592
e 6 467
e 6 420
e 6 595
e 6 287
e 6 576
e 6 288
e 6 591
e 6 415
e 6 416
e 7 641
e 7 642
e 7 393
e 7 394
e 7 341
e 7 342
e 8 643
e 8 644
e 8 395
e 8 396
e 8 343
e 8 344
e 9 553
e 9 554
e 9 429
e 9 430
e 9 337
e 9 339
e 9 445
e 9 446
e 10 555
e 10 556
e 10 431
e 10 432
e 10 338
e 10 340
e 10 447
e 10 448
e 11 265
e 11 266
e 11 237
e 11 238
e 11 277
e 11 278
e 11 501
e 11 502
e 12 503
e 12 504
e 12 267
e 12 268
e 12 239
e 12 240
e 12 279
e 12 280
e 13 417
e 13 419
e 14 418
e 14 420
e 15 437
e 15 229
e 15 230
e 15 438
e 16 440
e 16 439
e 16 231
e 16 232
e 17 581
e 17 582
e 17 231
e 17 229
e 17 253
e 17 254
e 18 230
e 18 583
e 18 584
e 18 232
e 18 255
e 18 256
e 19 453
e 19 454
e 19 505
e 19 506
e 19 313
e 19 314
e 20 508
e 20 455
e 20 456
e 20 315
e 20 316
e 20 507
e 21 481
e 21 482
e 21 485
e 21 326
e 21 634
e 21 521
e 21 522
e 21 633
e 21 614
e 21 613
e 21 570
e 21 569
e 21 325
e 21 486
e 22 524
e 22 483
e 22 484
e 22 327
e 22 487
e 22 488
e 22 523
e 22 328
e 22 615
e 22 636
e 22 616
e 22 571
e 22 572
e 22 635
e 23 577
e 23 578
e 23 301
e 23 302
e 23 533
e 23 534
e 23 537
e 23 538
e 24 579
e 24 580
e 24 303
e 24 304
e 24 535
e 24 536
e 24 539
e 24 540
e 25 557
e 25 517
e 25 518
e 25 558
e 26 560
e 26 559
e 26 519
e 26 520
e 27 581
e 27 583
e 27 597
e 27 598
e 27 601
e 27 603
e 28 582
e 28 584
e 28 599
e 28 600
e 28 602
e 28 604
e 29 449
e 29 450
e 30 451
e 30 452
e 31 261
e 31 262
e 31 393
e 31 395
e 31 429
e 31 431
e 32 263
e 32 264
e 32 394
e 32 396
e 32 430
e 32 432
e 33 585
e 33 349
e 33 586
e 33 445
e 33 350
e 33 447
e 34 587
e 34 588
e 34 352
e 34 446
e 34 351
e 34 448
e 35 653
e 35 655
e 35 569
e 35 377
e 35 378
e 35 571
e 36 572
e 36 654
e 36 656
e 36 570
e 36 379
e 36 380
e 37 301
e 37 303
e 38 302
e 38 304
e 39 365
e 39 493
e 39 366
e 39 494
e 39 593
e 39 595
e 39 573
e 39 575
e 40 495
e 40 496
e 40 594
e 40 596
e 40 367
e 40 368
e 40 574
e 40 576
e 41 597
e 41 525
e 41 526
e 41 599
e 42 600
e 42 598
e 42 527
e 42 528
e 43 425
e 43 426
e 43 572
e 43 569
e 44 570
e 44 427
e 44 428
e 44 571
e 45 233
e 45 234
e 45 427
e 45 425
e 45 477
e 45 478
e 46 428
e 46 426
e 46 235
e 46 236
e 46 479
e 46 480
e 47 549
e 47 437
e 47 550
e 47 439
e 48 552
e 48 438
e 48 551
e 48 440
e 49 329
e 49 330
e 49 625
e 49 626
e 49 281
e 49 282
e 50 331
e 50 332
e 50 627
e 50 628
e 50 283
e 50 284
e 51 449
e 51 451
e 51 457
e 51 458
e 51 617
e 51 369
e 51 370
e 51 405
e 51 406
e 51 618
e 51 285
e 51 287
e 52 450
e 52 452
e 52 619
e 52 459
e 52 460
e 52 620
e 52 371
e 52 372
e 52 407
e 52 408
e 52 286
e 52 288
e 53 225
e 53 226
e 53 325
e 53 327
e 53 381
e 53 382
e 53 249
e 53 250
e 53 317
e 53 318
e 54 227
e 54 228
e 54 326
e 54 328
e 54 384
e 54 383
e 54 251
e 54 252
e 54 319
e 54 320
e 55 553
e 55 555
e 56 554
e 56 556
e 57 641
e 57 643
e 57 453
e 57 455
e 57 413
e 57 415
e 58 642
e 58 644
e 58 454
e 58 456
e 58 414
e 58 416
e 59 361
e 59 362
e 59 562
e 59 561
e 60 564
e 60 363
e 60 364
e 60 563
e 61 497
e 61 498
e 61 285
e 61 288
e 62 499
e 62 500
e 62 286
e 62 287
e 63 409
e 63 410
e 63 421
e 63 422
e 64 411
e 64 412
e 64 423
e 64 424
e 65 649
e 65 650
e 65 653
e 65 656
e 66 651
e 66 652
e 66 654
e 66 655
e 67 645
e 67 646
e 68 647
e 68 648
e 69 469
e 69 470
e 70 471
e 70 472
e 71 433
e 71 434
e 71 325
e 71 328
e 72 435
e 72 436
e 72 326
e 72 327
e 73 353
e 73 354
e 73 561
e 73 563
e 73 281
e 73 283
e 74 355
e 74 356
e 74 562
e 74 564
e 74 282
e 74 284
e 75 609
e 75 610
e 76 611
e 76 612
e 77 649
e 77 651
e 77 373
e 77 374
e 78 650
e 78 652
e 78 375
e 78 376
e 79 529
e 79 485
e 79 551
e 79 487
e 79 489
e 79 490
e 79 337
e 79 530
e 79 340
e 79 277
e 79 279
e 79 549
e 80 486
e 80 488
e 80 552
e 80 491
e 80 492
e 80 531
e 80 338
e 80 339
e 80 532
e 80 278
e 80 280
e 80 550
e 81 257
e 81 258
e 81 644
e 81 237
e 81 467
e 81 239
e 81 433
e 81 435
e 81 465
e 81 627
e 81 625
e 81 641
e 82 628
e 82 642
e 82 259
e 82 260
e 82 466
e 82 238
e 82 468
e 82 240
e 82 434
e 82 436
e 82 643
e 82 626
e 83 521
e 83 297
e 83 298
e 83 523
e 83 396
e 83 393
e 84 300
e 84 394
e 84 299
e 84 524
e 84 522
e 84 395
e 85 261
e 85 294
e 85 263
e 85 584
e 85 581
e 85 277
e 85 280
e 85 633
e 85 293
e 85 635
e 85 637
e 85 638
e 86 262
e 86 295
e 86 296
e 86 640
e 86 264
e 86 583
e 86 278
e 86 279
e 86 634
e 86 636
e 86 639
e 86 582
e 87 353
e 87 355
e 87 471
e 87 553
e 87 556
e 87 305
e 87 306
e 87 405
e 87 407
e 87 469
e 87 509
e 87 510
e 88 354
e 88 356
e 88 554
e 88 555
e 88 472
e 88 307
e 88 308
e 88 406
e 88 408
e 88 512
e 88 511
e 88 470
e 89 361
e 89 363
e 89 397
e 89 398
e 89 377
e 89 379
e 90 362
e 90 364
e 90 399
e 90 400
e 90 378
e 90 380
e 91 593
e 91 596
e 92 594
e 92 595
e 93 481
e 93 483
e 93 421
e 93 423
e 93 533
e 93 535
e 93 601
e 93 604
e 94 482
e 94 484
e 94 422
e 94 424
e 94 534
e 94 536
e 94 602
e 94 603
e 95 517
e 95 519
e 95 585
e 95 587
e 95 493
e 95 495
e 95 317
e 95 319
e 96 518
e 96 520
e 96 586
e 96 588
e 96 494
e 96 496
e 96 318
e 96 320
e 97 401
e 97 402
e 98 403
e 98 404
e 99 545
e 99 547
e 99 357
e 99 358
e 99 637
e 99 639
e 100 546
e 100 548
e 100 359
e 100 360
e 100 638
e 100 640
e 101 525
e 101 527
e 101 409
e 101 411
e 101 349
e 101 351
e 102 526
e 102 528
e 102 410
e 102 412
e 102 350
e 102 352
e 103 309
e 103 310
e 104 311
e 104 312
e 105 513
e 105 609
e 105 611
e 105 514
e 105 313
e 105 315
e 106 610
e 106 515
e 106 516
e 106 612
e 106 314
e 106 316
e 107 293
e 107 295
e 107 621
e 107 622
e 107 373
e 107 375
e 107 605
e 107 607
e 108 294
e 108 296
e 108 623
e 108 624
e 108 374
e 108 376
e 108 606
e 108 608
e 109 497
e 109 499
e 109 629
e 109 630
e 109 509
e 109 511
e 110 498
e 110 500
e 110 631
e 110 632
e 110 510
e 110 512
e 111 369
e 111 371
e 112 370
e 112 372
e 113 385
e 113 386
e 113 441
e 113 442
e 114 444
e 114 387
e 114 388
e 114 443
e 115 357
e 115 359
e 115 552
e 115 657
e 115 658
e 115 533
e 115 536
e 115 409
e 115 549
e 115 412
e 116 358
e 116 551
e 116 360
e 116 659
e 116 660
e 116 534
e 116 535
e 116 410
e 116 411
e 116 550
e 117 529
e 117 457
e 117 605
e 117 459
e 117 525
e 117 531
e 117 528
e 117 305
e 117 489
e 117 307
e 117 341
e 117 343
e 117 608
e 117 413
e 117 491
e 117 416
e 118 490
e 118 530
e 118 458
e 118 460
e 118 526
e 118 527
e 118 606
e 118 532
e 118 306
e 118 308
e 118 342
e 118 344
e 118 607
e 118 414
e 118 415
e 118 492
e 119 241
e 119 242
e 119 245
e 119 246
e 120 243
e 120 244
e 120 247
e 120 248
e 121 269
e 121 237
e 121 270
e 121 240
e 121 221
e 121 222
e 122 238
e 122 239
e 122 272
e 122 271
e 122 223
e 122 224
e 123 257
e 123 385
e 123 259
e 123 548
e 123 457
e 123 460
e 123 493
e 123 387
e 123 496
e 123 579
e 123 545
e 123 577
e 124 258
e 124 547
e 124 260
e 124 386
e 124 458
e 124 459
e 124 494
e 124 495
e 124 580
e 124 388
e 124 546
e 124 578
e 125 329
e 125 331
e 125 505
e 125 507
e 125 221
e 125 223
e 126 330
e 126 332
e 126 506
e 126 508
e 126 222
e 126 224
e 127 289
e 127 290
e 127 485
e 127 647
e 127 488
e 127 401
e 127 403
e 127 645
e 128 291
e 128 292
e 128 486
e 128 487
e 128 648
e 128 402
e 128 404
e 128 646
e 129 497
e 129 500
e 130 498
e 130 499
e 131 253
e 131 405
e 131 255
e 131 408
e 131 381
e 131 383
e 132 254
e 132 406
e 132 407
e 132 256
e 132 382
e 132 384
e 133 449
e 133 452
e 133 293
e 133 296
e 133 617
e 133 619
e 133 373
e 133 566
e 133 376
e 133 565
e 133 317
e 133 320
e 134 450
e 134 451
e 134 620
e 134 294
e 134 295
e 134 618
e 134 567
e 134 374
e 134 375
e 134 568
e 134 318
e 134 319
e 135 289
e 135 291
e 136 290
e 136 292
e 137 589
e 137 591
e 138 590
e 138 592
e 139 225
e 139 625
e 139 227
e 139 628
e 140 226
e 140 627
e 140 228
e 140 626
e 141 353
e 141 513
e 141 515
e 141 356
e 141 557
e 141 559
e 141 633
e 141 636
e 142 354
e 142 355
e 142 516
e 142 514
e 142 558
e 142 560
e 142 634
e 142 635
e 143 645
e 143 648
e 143 469
e 143 472
e 143 477
e 143 479
e 144 646
e 144 647
e 144 470
e 144 471
e 144 478
e 144 480
e 145 537
e 145 539
e 145 621
e 145 623
e 146 538
e 146 540
e 146 622
e 146 624
e 147 257
e 147 260
e 147 433
e 147 436
e 147 537
e 147 540
e 148 258
e 148 259
e 148 434
e 148 435
e 148 538
e 148 539
e 149 417
e 149 420
e 149 389
e 149 390
e 149 333
e 149 334
e 150 418
e 150 419
e 150 391
e 150 392
e 150 335
e 150 336
e 151 297
e 151 299
e 151 309
e 151 311
e 151 249
e 151 251
e 152 298
e 152 300
e 152 310
e 152 312
e 152 250
e 152 252
e 153 273
e 153 274
e 154 275
e 154 276
e 155 657
e 155 357
e 155 360
e 155 541
e 155 301
e 155 659
e 155 304
e 155 241
e 155 243
e 155 349
e 155 542
e 155 352
e 156 358
e 156 359
e 156 658
e 156 302
e 156 303
e 156 242
e 156 244
e 156 660
e 156 543
e 156 350
e 156 351
e 156 544
e 157 333
e 157 221
e 157 335
e 157 224
e 158 336
e 158 222
e 158 223
e 158 334
e 159 333
e 159 269
e 159 271
e 159 336
e 160 335
e 160 270
e 160 334
e 160 272
e 161 585
e 161 588
e 161 365
e 161 367
e 161 501
e 161 503
e 162 586
e 162 587
e 162 366
e 162 368
e 162 502
e 162 504
e 163 649
e 163 652
e 163 589
e 163 592
e 163 401
e 163 404
e 163 281
e 163 284
e 164 650
e 164 651
e 164 590
e 164 591
e 164 402
e 164 403
e 164 282
e 164 283
e 165 513
e 165 516
e 165 269
e 165 272
e 165 245
e 165 247
e 166 514
e 166 515
e 166 270
e 166 271
e 166 246
e 166 248
e 167 397
e 167 341
e 167 399
e 167 344
e 168 400
e 168 342
e 168 343
e 168 398
e 169 273
e 169 505
e 169 275
e 169 508
e 170 274
e 170 507
e 170 276
e 170 506
e 171 481
e 171 484
e 172 482
e 172 483
e 173 389
e 173 391
e 173 437
e 173 440
e 173 441
e 173 443
e 174 390
e 174 392
e 174 438
e 174 439
e 174 442
e 174 444
e 175 233
e 175 235
e 176 234
e 176 236
e 177 389
e 177 392
e 178 390
e 178 391
e 179 273
e 179 276
e 179 229
e 179 232
e 180 274
e 180 275
e 180 230
e 180 231
e 181 321
e 181 329
e 181 323
e 181 332
e 181 361
e 181 233
e 181 267
e 181 236
e 181 461
e 181 521
e 181 463
e 181 265
e 181 524
e 181 364
e 181 381
e 181 384
e 182 322
e 182 523
e 182 324
e 182 522
e 182 234
e 182 235
e 182 268
e 182 462
e 182 382
e 182 363
e 182 383
e 182 266
e 182 464
e 182 331
e 182 330
e 182 362
e 183 297
e 183 300
e 184 298
e 184 299
e 185 577
e 185 580
e 185 265
e 185 268
e 185 629
e 185 631
e 185 345
e 185 346
e 185 541
e 185 543
e 186 578
e 186 579
e 186 266
e 186 267
e 186 630
e 186 632
e 186 347
e 186 348
e 186 542
e 186 544
e 187 453
e 187 615
e 187 456
e 187 573
e 187 613
e 187 576
e 187 477
e 187 480
e 188 454
e 188 455
e 188 616
e 188 478
e 188 575
e 188 574
e 188 479
e 188 614
e 189 321
e 189 324
e 189 517
e 189 520
e 189 565
e 189 567
e 190 322
e 190 323
e 190 518
e 190 519
e 190 566
e 190 568
e 191 225
e 191 441
e 191 228
e 191 444
e 192 226
e 192 227
e 192 443
e 192 442
e 193 305
e 193 308
e 193 241
e 193 244
e 193 473
e 193 474
e 194 306
e 194 307
e 194 242
e 194 243
e 194 475
e 194 476
e 195 561
e 195 564
e 195 597
e 195 600
e 196 562
e 196 563
e 196 598
e 196 599
e 197 557
e 197 560
e 197 377
e 197 345
e 197 347
e 197 380
e 198 558
e 198 559
e 198 378
e 198 346
e 198 379
e 198 348
e 199 385
e 199 388
e 199 425
e 199 428
e 199 621
e 199 624
e 199 245
e 199 248
e 199 313
e 199 316
e 200 386
e 200 387
e 200 426
e 200 427
e 200 622
e 200 623
e 200 246
e 200 247
e 200 314
e 200 315
e 201 465
e 201 468
e 201 345
e 201 348
e 201 637
e 201 640
e 202 466
e 202 467
e 202 346
e 202 347
e 202 638
e 202 639
e 203 657
e 203 365
e 203 368
e 203 529
e 203 532
e 203 660
e 204 658
e 204 659
e 204 367
e 204 366
e 204 530
e 204 531
e 205 253
e 205 369
e 205 372
e 205 256
e 205 541
e 205 544
e 206 542
e 206 370
e 206 371
e 206 255
e 206 254
e 206 543
e 207 473
e 207 617
e 207 475
e 207 620
e 208 474
e 208 619
e 208 476
e 208 618
e 209 565
e 209 568
e 210 566
e 210 567
e 211 445
e 211 448
e 212 446
e 212 447
e 213 609
e 213 612
e 213 261
e 213 264
e 213 489
e 213 492
e 213 429
e 213 432
e 213 309
e 213 312
e 214 610
e 214 611
e 214 262
e 214 263
e 214 490
e 214 491
e 214 430
e 214 431
e 214 310
e 214 311
e 215 289
e 215 292
e 215 397
e 215 400
e 215 509
e 215 512
e 216 290
e 216 291
e 216 398
e 216 399
e 216 510
e 216 511
e 217 421
e 217 424
e 217 616
e 217 461
e 217 464
e 217 501
e 217 504
e 217 613
e 218 615
e 218 422
e 218 423
e 218 462
e 218 463
e 218 502
e 218 503
e 218 614
e 219 476
e 219 473
e 219 629
e 219 632
e 219 249
e 219 252
e 220 630
e 220 631
e 220 474
e 220 250
e 220 251
e 220 475